Gurobi Optimizer version 9.1.2 build v9.1.2rc0 (linux64)
Thread count: 36 physical cores, 72 logical processors, using up to 32 threads
Optimize a model with 12 rows, 57 columns and 590 nonzeros
Model fingerprint: 0xf32eec78
Model has 47 quadratic constraints
Coefficient statistics:
  Matrix range     [2e-05, 3e+00]
  QMatrix range    [1e+00, 1e+00]
  QLMatrix range   [1e+00, 1e+00]
  Objective range  [8e-03, 7e-01]
  Bounds range     [1e+00, 1e+00]
  RHS range        [1e+00, 1e+00]
Presolve removed 9 rows and 0 columns

Continuous model is non-convex -- solving as a MIP.

Presolve removed 9 rows and 0 columns
Presolve time: 0.00s
Presolved: 189 rows, 57 columns, 443 nonzeros
Presolved model has 47 bilinear constraint(s)
Variable types: 57 continuous, 0 integer (0 binary)

Root relaxation: objective -1.743721e+00, 44 iterations, 0.00 seconds

    Nodes    |    Current Node    |     Objective Bounds      |     Work
 Expl Unexpl |  Obj  Depth IntInf | Incumbent    BestBd   Gap | It/Node Time

     0     0   -1.74372    0   38          -   -1.74372      -     -    0s
H    0     0                       0.6147548   -1.74372   384%     -    0s
     0     0   -1.64739    0    1    0.61475   -1.64739   368%     -    0s
H    0     0                      -1.6450460   -1.64739  0.14%     -    0s
     0     0     cutoff    0        -1.64505   -1.64505  0.00%     -    0s

Cutting planes:
  RLT: 25
  BQP: 3

Explored 1 nodes (76 simplex iterations) in 0.01 seconds
Thread count was 32 (of 72 available processors)

Solution count 2: -1.64505 0.614755 
No other solutions better than -1.64505

Optimal solution found (tolerance 1.00e-04)
Best objective -1.645045978473e+00, best bound -1.645045978473e+00, gap 0.0000%

User-callback calls 78, time in user-callback 0.00 sec
Gurobi Optimizer version 9.1.2 build v9.1.2rc0 (linux64)
Thread count: 36 physical cores, 72 logical processors, using up to 32 threads
Optimize a model with 60 rows, 312 columns and 16100 nonzeros
Model fingerprint: 0xcd29d290
Model has 262 quadratic constraints
Coefficient statistics:
  Matrix range     [4e-07, 7e+00]
  QMatrix range    [1e+00, 1e+00]
  QLMatrix range   [1e+00, 1e+00]
  Objective range  [5e-03, 2e+00]
  Bounds range     [1e+00, 1e+00]
  RHS range        [1e+00, 1e+00]
Presolve removed 15 rows and 0 columns

Continuous model is non-convex -- solving as a MIP.

Presolve removed 15 rows and 0 columns
Presolve time: 0.01s
Presolved: 1081 rows, 312 columns, 13447 nonzeros
Presolved model has 262 bilinear constraint(s)
Variable types: 312 continuous, 0 integer (0 binary)

Root relaxation: objective -2.679498e+01, 315 iterations, 0.01 seconds

    Nodes    |    Current Node    |     Objective Bounds      |     Work
 Expl Unexpl |  Obj  Depth IntInf | Incumbent    BestBd   Gap | It/Node Time

     0     0  -26.79498    0  183          -  -26.79498      -     -    0s
     0     0  -25.52000    0   86          -  -25.52000      -     -    0s
     0     0  -25.48978    0   82          -  -25.48978      -     -    0s
     0     0  -25.41952    0   78          -  -25.41952      -     -    0s
     0     0  -25.41620    0   78          -  -25.41620      -     -    0s
     0     0  -25.40376    0   86          -  -25.40376      -     -    0s
     0     0  -25.40227    0   86          -  -25.40227      -     -    0s
     0     0  -25.39493    0   86          -  -25.39493      -     -    0s
     0     0  -25.39424    0   86          -  -25.39424      -     -    0s
     0     0  -25.39026    0   78          -  -25.39026      -     -    0s
     0     0  -25.38960    0   78          -  -25.38960      -     -    0s
     0     0  -25.38777    0   78          -  -25.38777      -     -    0s
     0     0  -25.38715    0   78          -  -25.38715      -     -    0s
     0     0  -25.38704    0   78          -  -25.38704      -     -    0s
     0     0  -25.38704    0   78          -  -25.38704      -     -    0s
H    0     0                     -22.8033087  -25.38704  11.3%     -    0s
H    0     0                     -22.8346899  -25.38704  11.2%     -    0s
     0     2  -25.38704    0   78  -22.83469  -25.38704  11.2%     -    0s
* 1994  1645              53     -23.4571231  -24.09973  2.74%  56.2    2s
* 3162  1803              61     -23.4820014  -24.01242  2.26%  53.0    2s
* 4260  1912              50     -23.4822139  -23.97226  2.09%  49.8    3s
* 4261  1912              50     -23.4822267  -23.97226  2.09%  49.8    3s
* 4267  1912              52     -23.4823022  -23.97226  2.09%  49.7    3s
* 6047  1189              49     -23.4824333  -23.97226  2.09%  52.0    4s
* 6048  1128              49     -23.4824490  -23.97226  2.09%  52.0    4s
* 6049  1071              48     -23.4824792  -23.97226  2.09%  52.0    4s
* 6149  1031              48     -23.4824865  -23.97226  2.09%  51.8    4s
  6989  1187     cutoff   23       -23.48249  -23.97226  2.09%  49.9    5s
* 7040  1119              52     -23.4827604  -23.97226  2.08%  49.7    5s
* 7042  1069              53     -23.4830553  -23.97226  2.08%  49.7    5s
* 7044  1035              54     -23.4831199  -23.97226  2.08%  49.7    5s
* 7045  1035              54     -23.4831210  -23.97226  2.08%  49.7    5s
* 7190  1090              67     -23.4920673  -23.97226  2.04%  49.3    5s
* 7191  1090              67     -23.4928432  -23.97226  2.04%  49.3    5s
* 8372  1635              61     -23.5208363  -23.97226  1.92%  47.0    5s
* 8400  1635              68     -23.5568921  -23.97226  1.76%  47.0    5s
* 9316  1827              63     -23.5572104  -23.97226  1.76%  45.9    5s
* 9317  1827              63     -23.5572112  -23.97226  1.76%  45.9    5s
* 9884  1852              91     -23.5665624  -23.97226  1.72%  45.5    6s
*15205  1729              58     -23.5665823  -23.74347  0.75%  41.4    7s
*16130  1867              62     -23.5673569  -23.74347  0.75%  41.0    7s
*16131  1867              62     -23.5673806  -23.74347  0.75%  41.0    7s
*18195  2021              61     -23.5681694  -23.74347  0.74%  39.6    8s
*18792  2125              60     -23.5682198  -23.74347  0.74%  39.2    8s
*19099  1836              74     -23.5922354  -23.70854  0.49%  39.1    8s
 26725  1586     cutoff   39       -23.59224  -23.63316  0.17%  35.5   10s
*29123  1598              63     -23.5923916  -23.62369  0.13%  34.3   10s
*29125  1598              64     -23.5924010  -23.62369  0.13%  34.3   10s
*29128  1598              63     -23.5924153  -23.62369  0.13%  34.3   10s
*29135  1598              65     -23.5924160  -23.62369  0.13%  34.3   10s
*30061  1598              61     -23.5925731  -23.62155  0.12%  33.8   10s
*30062  1598              61     -23.5925740  -23.62155  0.12%  33.8   10s
*30063  1598              61     -23.5925873  -23.62155  0.12%  33.8   10s
*30542  1784              66     -23.5925887  -23.61949  0.11%  33.6   10s
*30546  1784              66     -23.5925892  -23.61949  0.11%  33.6   10s
*30547  1784              66     -23.5925901  -23.61949  0.11%  33.6   10s
*30549  1784              66     -23.5925927  -23.61949  0.11%  33.6   10s
*30678  1784              71     -23.5926479  -23.61814  0.11%  33.5   10s
*30679  1784              71     -23.5926609  -23.61814  0.11%  33.5   10s
*31919  1882              71     -23.5926647  -23.61557  0.10%  32.9   10s
*32728  1882              64     -23.5932968  -23.61518  0.09%  32.5   10s
*33082  1822              61     -23.5933134  -23.61427  0.09%  32.4   10s
*34325  1916              67     -23.5934867  -23.61186  0.08%  31.8   11s
*34326  1916              67     -23.5934868  -23.61186  0.08%  31.8   11s
*34879  1916              65     -23.5941652  -23.60979  0.07%  31.5   11s
*35845  1673              61     -23.5943419  -23.60866  0.06%  31.0   11s
*41528  1533              65     -23.5943423  -23.60183  0.03%  28.9   12s
*41615  1533              63     -23.5943563  -23.60180  0.03%  28.9   12s
*41616  1533              63     -23.5943588  -23.60180  0.03%  28.9   12s
*41623  1533              62     -23.5946298  -23.60180  0.03%  28.9   12s
*41629  1533              62     -23.5946446  -23.60180  0.03%  28.9   12s
*42355  1359              67     -23.5946684  -23.60092  0.03%  28.6   12s
*46570   738              68     -23.5946741  -23.59745  0.01%  27.1   13s
*46574   738              67     -23.5946777  -23.59745  0.01%  27.1   13s
*46812   738              64     -23.5948409  -23.59733  0.01%  27.0   13s

Explored 48845 nodes (1283659 simplex iterations) in 13.40 seconds
Thread count was 32 (of 72 available processors)

Solution count 10: -23.5948 -23.5947 -23.5947 ... -23.5943

Optimal solution found (tolerance 1.00e-04)
Best objective -2.359483926708e+01, best bound -2.359652777229e+01, gap 0.0072%

User-callback calls 98898, time in user-callback 0.02 sec



objective value: -23.594839267081614
objective bound: -23.596527772294355
x_opt: [0.9452044678370607, 0.9686786353190044, 0.0, 0.5017626492509064, 0.0, 0.0, 1.0, 0.0, 0.0, 0.0, 1.0, 0.0, 1.0, 1.0, 0.5797294137316411, 1.0, 0.0, 1.0, 0.0, 0.0, 0.482057229110524, 0.22616652875165946, 0.0, 0.5802687600829444, 0.0, 0.8416159221393926, 0.0, 1.0, 0.0, 0.0, 1.0, 1.0, 0.0, 0.481999986146253, 1.0, 0.999676840025708, 0.0, 1.0, 0.0, 1.0, 1.0, 0.0, 1.0, 0.05526446555960508, 9.474193078510104e-7, 1.0100193574913156e-13, 0.552527190907785, 0.4771779512758396, 0.39106271085409366, 1.0124746651037704e-13]
GUROBI solution time: 13.398422956466675




